Welcome to the CBC MILP Solver 
Version: 2.10.10 
Build Date: Aug  1 2023 

command line - cbc /var/folders/xx/fsz3wvqx27n46ckqdt6dl4gm0000gn/T/6d485ae47c9b404db9856f56b946e558-pulp.mps -timeMode elapsed -branch -printingOptions all -solution /var/folders/xx/fsz3wvqx27n46ckqdt6dl4gm0000gn/T/6d485ae47c9b404db9856f56b946e558-pulp.sol (default strategy 1)
At line 2 NAME          MODEL
At line 3 ROWS
At line 118 COLUMNS
At line 988 RHS
At line 1102 BOUNDS
At line 1180 ENDATA
Problem MODEL has 113 rows, 77 columns and 716 elements
Coin0008I MODEL read with 0 errors
Option for timeMode changed from cpu to elapsed
Continuous objective value is 0 - 0.00 seconds
Cgl0004I processed model has 111 rows, 74 columns (74 integer (71 of which binary)) and 706 elements
Cbc0045I No integer variables out of 74 objects (74 integer) have costs
Cbc0045I branch on satisfied N create fake objective Y random cost Y
Cbc0038I Initial state - 10 integers unsatisfied sum - 5
Cbc0038I Pass   1: suminf.    5.12500 (16) obj. 0 iterations 23
Cbc0038I Pass   2: suminf.    2.00000 (4) obj. 0 iterations 17
Cbc0038I Pass   3: suminf.    2.00000 (4) obj. 0 iterations 6
Cbc0038I Pass   4: suminf.    2.00000 (4) obj. 0 iterations 26
Cbc0038I Pass   5: suminf.    5.16667 (19) obj. 0 iterations 43
Cbc0038I Pass   6: suminf.    4.18519 (23) obj. 0 iterations 25
Cbc0038I Pass   7: suminf.    7.75000 (19) obj. 0 iterations 39
Cbc0038I Pass   8: suminf.    7.77778 (28) obj. 0 iterations 75
Cbc0038I Pass   9: suminf.    4.50000 (19) obj. 0 iterations 16
Cbc0038I Pass  10: suminf.    2.50000 (5) obj. 0 iterations 40
Cbc0038I Pass  11: suminf.    2.50000 (5) obj. 0 iterations 10
Cbc0038I Pass  12: suminf.    2.50000 (5) obj. 0 iterations 7
Cbc0038I Pass  13: suminf.    3.75000 (13) obj. 0 iterations 54
Cbc0038I Pass  14: suminf.    2.50000 (5) obj. 0 iterations 34
Cbc0038I Pass  15: suminf.    2.50000 (5) obj. 0 iterations 14
Cbc0038I Pass  16: suminf.    2.50000 (5) obj. 0 iterations 8
Cbc0038I Pass  17: suminf.    2.00000 (4) obj. 0 iterations 27
Cbc0038I Pass  18: suminf.    2.50000 (5) obj. 0 iterations 27
Cbc0038I Pass  19: suminf.    2.50000 (5) obj. 0 iterations 12
Cbc0038I Pass  20: suminf.    4.50000 (17) obj. 0 iterations 33
Cbc0038I Pass  21: suminf.    2.66667 (8) obj. 0 iterations 37
Cbc0038I Pass  22: suminf.    2.50000 (5) obj. 0 iterations 6
Cbc0038I Pass  23: suminf.    2.50000 (5) obj. 0 iterations 10
Cbc0038I Pass  24: suminf.    2.50000 (5) obj. 0 iterations 6
Cbc0038I Pass  25: suminf.    3.50000 (7) obj. 0 iterations 20
Cbc0038I Pass  26: suminf.    4.00000 (8) obj. 0 iterations 28
Cbc0038I Pass  27: suminf.    4.00000 (8) obj. 0 iterations 22
Cbc0038I Pass  28: suminf.    6.00000 (20) obj. 0 iterations 39
Cbc0038I Pass  29: suminf.    2.50000 (5) obj. 0 iterations 37
Cbc0038I Pass  30: suminf.    2.50000 (5) obj. 0 iterations 28
Cbc0038I Pass  31: suminf.    2.00000 (4) obj. 0 iterations 41
Cbc0038I Pass  32: suminf.    2.50000 (5) obj. 0 iterations 27
Cbc0038I Pass  33: suminf.    2.50000 (5) obj. 0 iterations 9
Cbc0038I Pass  34: suminf.    2.50000 (5) obj. 0 iterations 20
Cbc0038I Pass  35: suminf.    2.50000 (5) obj. 0 iterations 19
Cbc0038I Pass  36: suminf.    2.50000 (5) obj. 0 iterations 15
Cbc0038I Pass  37: suminf.    2.50000 (5) obj. 0 iterations 24
Cbc0038I Pass  38: suminf.    2.00000 (4) obj. 0 iterations 34
Cbc0038I Pass  39: suminf.    3.00000 (9) obj. 0 iterations 48
Cbc0038I Pass  40: suminf.    2.00000 (4) obj. 0 iterations 43
Cbc0038I Pass  41: suminf.    2.50000 (5) obj. 0 iterations 36
Cbc0038I Pass  42: suminf.    2.50000 (5) obj. 0 iterations 15
Cbc0038I Pass  43: suminf.    2.50000 (5) obj. 0 iterations 43
Cbc0038I Pass  44: suminf.    2.50000 (5) obj. 0 iterations 39
Cbc0038I Pass  45: suminf.    2.50000 (5) obj. 0 iterations 17
Cbc0038I Pass  46: suminf.    2.00000 (4) obj. 0 iterations 35
Cbc0038I Pass  47: suminf.    4.50000 (9) obj. 0 iterations 42
Cbc0038I Pass  48: suminf.    2.50000 (5) obj. 0 iterations 29
Cbc0038I Pass  49: suminf.    2.50000 (5) obj. 0 iterations 9
Cbc0038I Pass  50: suminf.    2.50000 (5) obj. 0 iterations 11
Cbc0038I Pass  51: suminf.    6.00000 (12) obj. 0 iterations 39
Cbc0038I Pass  52: suminf.    4.43750 (18) obj. 0 iterations 53
Cbc0038I Pass  53: suminf.    2.00000 (4) obj. 0 iterations 30
Cbc0038I Pass  54: suminf.    2.00000 (4) obj. 0 iterations 4
Cbc0038I Pass  55: suminf.    2.00000 (4) obj. 0 iterations 15
Cbc0038I Pass  56: suminf.    6.00000 (12) obj. 0 iterations 51
Cbc0038I Pass  57: suminf.    5.20000 (19) obj. 0 iterations 44
Cbc0038I Pass  58: suminf.    3.50000 (18) obj. 0 iterations 35
Cbc0038I Pass  59: suminf.    3.20000 (20) obj. 0 iterations 25
Cbc0038I Pass  60: suminf.    4.75000 (16) obj. 0 iterations 49
Cbc0038I Pass  61: suminf.    2.00000 (10) obj. 0 iterations 41
Cbc0038I Pass  62: suminf.    2.00000 (10) obj. 0 iterations 11
Cbc0038I Pass  63: suminf.    2.00000 (10) obj. 0 iterations 39
Cbc0038I Pass  64: suminf.    6.00000 (19) obj. 0 iterations 42
Cbc0038I Pass  65: suminf.    2.00000 (10) obj. 0 iterations 30
Cbc0038I Pass  66: suminf.    6.00000 (12) obj. 0 iterations 38
Cbc0038I Pass  67: suminf.    3.71429 (17) obj. 0 iterations 37
Cbc0038I Pass  68: suminf.    2.50000 (5) obj. 0 iterations 43
Cbc0038I Pass  69: suminf.    2.50000 (5) obj. 0 iterations 21
Cbc0038I Pass  70: suminf.    2.50000 (5) obj. 0 iterations 10
Cbc0038I Pass  71: suminf.    2.50000 (5) obj. 0 iterations 21
Cbc0038I Pass  72: suminf.    2.50000 (5) obj. 0 iterations 16
Cbc0038I Pass  73: suminf.    2.50000 (5) obj. 0 iterations 12
Cbc0038I Pass  74: suminf.    2.91667 (20) obj. 0 iterations 43
Cbc0038I Pass  75: suminf.    2.75000 (17) obj. 0 iterations 30
Cbc0038I Pass  76: suminf.    5.66667 (19) obj. 0 iterations 36
Cbc0038I Pass  77: suminf.    4.64286 (21) obj. 0 iterations 22
Cbc0038I Pass  78: suminf.    4.64286 (21) obj. 0 iterations 13
Cbc0038I Pass  79: suminf.    5.49091 (30) obj. 0 iterations 46
Cbc0038I Pass  80: suminf.    5.50000 (26) obj. 0 iterations 9
Cbc0038I Pass  81: suminf.    6.18750 (24) obj. 0 iterations 41
Cbc0038I Pass  82: suminf.    4.73529 (23) obj. 0 iterations 23
Cbc0038I Pass  83: suminf.    3.53846 (18) obj. 0 iterations 14
Cbc0038I Pass  84: suminf.    3.53846 (18) obj. 0 iterations 8
Cbc0038I Pass  85: suminf.    5.25000 (21) obj. 0 iterations 64
Cbc0038I Pass  86: suminf.    2.20000 (11) obj. 0 iterations 37
Cbc0038I Pass  87: suminf.    2.20000 (11) obj. 0 iterations 5
Cbc0038I Pass  88: suminf.    2.00000 (10) obj. 0 iterations 32
Cbc0038I Pass  89: suminf.    2.00000 (10) obj. 0 iterations 25
Cbc0038I Pass  90: suminf.    3.10526 (21) obj. 0 iterations 27
Cbc0038I Pass  91: suminf.    5.40000 (23) obj. 0 iterations 58
Cbc0038I Pass  92: suminf.    3.00000 (9) obj. 0 iterations 22
Cbc0038I Pass  93: suminf.    2.57143 (16) obj. 0 iterations 34
Cbc0038I Pass  94: suminf.    4.64286 (21) obj. 0 iterations 54
Cbc0038I Pass  95: suminf.    4.64286 (21) obj. 0 iterations 0
Cbc0038I Pass  96: suminf.    5.63333 (25) obj. 0 iterations 55
Cbc0038I Pass  97: suminf.    4.33333 (21) obj. 0 iterations 17
Cbc0038I Pass  98: suminf.    4.57143 (19) obj. 0 iterations 18
Cbc0038I Pass  99: suminf.    2.75000 (11) obj. 0 iterations 67
Cbc0038I Pass 100: suminf.    6.00000 (12) obj. 0 iterations 58
Cbc0038I No solution found this major pass
Cbc0038I Before mini branch and bound, 1 integers at bound fixed and 0 continuous
Cbc0038I Full problem 111 rows 74 columns, reduced to 109 rows 73 columns
Cbc0038I Mini branch and bound did not improve solution (0.09 seconds)
Cbc0038I After 0.09 seconds - Feasibility pump exiting - took 0.09 seconds
Cbc0031I 6 added rows had average density of 68.666667
Cbc0013I At root node, 6 cuts changed objective from 0 to 0 in 100 passes
Cbc0014I Cut generator 0 (Probing) - 56 row cuts average 59.4 elements, 0 column cuts (0 active)  in 0.026 seconds - new frequency is -100
Cbc0014I Cut generator 1 (Gomory) - 592 row cuts average 72.6 elements, 0 column cuts (0 active)  in 0.031 seconds - new frequency is -100
Cbc0014I Cut generator 2 (Knapsack) - 0 row cuts average 0.0 elements, 0 column cuts (0 active)  in 0.007 seconds - new frequency is -100
Cbc0014I Cut generator 3 (Clique) - 0 row cuts average 0.0 elements, 0 column cuts (0 active)  in 0.001 seconds - new frequency is -100
Cbc0014I Cut generator 4 (MixedIntegerRounding2) - 11 row cuts average 41.7 elements, 0 column cuts (0 active)  in 0.016 seconds - new frequency is -100
Cbc0014I Cut generator 5 (FlowCover) - 0 row cuts average 0.0 elements, 0 column cuts (0 active)  in 0.009 seconds - new frequency is -100
Cbc0014I Cut generator 6 (TwoMirCuts) - 85 row cuts average 65.6 elements, 0 column cuts (0 active)  in 0.008 seconds - new frequency is -100
Cbc0010I After 0 nodes, 1 on tree, 1e+50 best solution, best possible 0 (0.28 seconds)
Cbc0001I Search completed - best objective 1e+50, took 9933 iterations and 198 nodes (0.82 seconds)
Cbc0032I Strong branching done 2358 times (31746 iterations), fathomed 81 nodes and fixed 103 variables
Cbc0035I Maximum depth 26, 0 variables fixed on reduced cost
Cuts at root node changed objective from 0 to 0
Probing was tried 100 times and created 56 cuts of which 0 were active after adding rounds of cuts (0.026 seconds)
Gomory was tried 100 times and created 592 cuts of which 0 were active after adding rounds of cuts (0.031 seconds)
Knapsack was tried 100 times and created 0 cuts of which 0 were active after adding rounds of cuts (0.007 seconds)
Clique was tried 100 times and created 0 cuts of which 0 were active after adding rounds of cuts (0.001 seconds)
MixedIntegerRounding2 was tried 100 times and created 11 cuts of which 0 were active after adding rounds of cuts (0.016 seconds)
FlowCover was tried 100 times and created 0 cuts of which 0 were active after adding rounds of cuts (0.009 seconds)
TwoMirCuts was tried 100 times and created 85 cuts of which 0 were active after adding rounds of cuts (0.008 seconds)
ZeroHalf was tried 1 times and created 0 cuts of which 0 were active after adding rounds of cuts (0.000 seconds)

Result - Problem proven infeasible

No feasible solution found
Enumerated nodes:               198
Total iterations:               9933
Time (CPU seconds):             0.70
Time (Wallclock seconds):       0.82

Option for printingOptions changed from normal to all
Total time (CPU seconds):       0.70   (Wallclock seconds):       0.82

